NAME: Taillard-150D
BEST_KNOWN: 2645.40
COMMENT: 2645.400000
DIMENSION: 151
CAPACITY: 1874
EDGE_WEIGHT_FORMAT: FUNCTION
EDGE_WEIGHT_TYPE: EXACT_2D
NODE_COORD_SECTION
1 0.00000 0.00000
2 -9.00000 12.00000
3 -10.00000 11.00000
4 -16.00000 17.00000
5 -6.00000 15.00000
6 -4.00000 7.00000
7 -11.00000 10.00000
8 -3.00000 9.00000
9 -14.00000 12.00000
10 -15.00000 13.00000
11 -15.00000 7.00000
12 -3.00000 5.00000
13 -65.00000 22.00000
14 -72.00000 1.00000
15 -66.00000 14.00000
16 -83.00000 8.00000
17 -84.00000 11.00000
18 -68.00000 26.00000
19 -59.00000 28.00000
20 -85.00000 15.00000
21 -60.00000 22.00000
22 -79.00000 18.00000
23 -60.00000 11.00000
24 -71.00000 14.00000
25 -60.00000 5.00000
26 -71.00000 22.00000
27 -86.00000 4.00000
28 -62.00000 11.00000
29 -67.00000 22.00000
30 88.00000 50.00000
31 91.00000 66.00000
32 79.00000 63.00000
33 79.00000 64.00000
34 9.00000 92.00000
35 -8.00000 90.00000
36 -6.00000 92.00000
37 4.00000 64.00000
38 8.00000 92.00000
39 -8.00000 70.00000
40 -3.00000 83.00000
41 11.00000 87.00000
42 -17.00000 71.00000
43 0.00000 89.00000
44 -3.00000 92.00000
45 -6.00000 76.00000
46 -10.00000 65.00000
47 -9.00000 90.00000
48 -11.00000 64.00000
49 8.00000 68.00000
50 -13.00000 90.00000
51 7.00000 69.00000
52 -6.00000 14.00000
53 -16.00000 27.00000
54 -11.00000 20.00000
55 -10.00000 18.00000
56 -11.00000 14.00000
57 -4.00000 24.00000
58 -4.00000 12.00000
59 -9.00000 24.00000
60 2.00000 13.00000
61 0.00000 20.00000
62 -9.00000 28.00000
63 -16.00000 18.00000
64 -4.00000 30.00000
65 -11.00000 20.00000
66 -5.00000 22.00000
67 -71.00000 -68.00000
68 -78.00000 -67.00000
69 -57.00000 -54.00000
70 -72.00000 -56.00000
71 -66.00000 -46.00000
72 -78.00000 -62.00000
73 22.00000 -5.00000
74 17.00000 -9.00000
75 22.00000 -13.00000
76 17.00000 4.00000
77 11.00000 -6.00000
78 25.00000 -5.00000
79 10.00000 -5.00000
80 8.00000 -16.00000
81 27.00000 -2.00000
82 22.00000 -6.00000
83 -36.00000 83.00000
84 -29.00000 85.00000
85 -34.00000 90.00000
86 -29.00000 87.00000
87 -37.00000 88.00000
88 -105.00000 -16.00000
89 -94.00000 -24.00000
90 -102.00000 -11.00000
91 -105.00000 -22.00000
92 -90.00000 -17.00000
93 -100.00000 -19.00000
94 -95.00000 -11.00000
95 44.00000 50.00000
96 40.00000 50.00000
97 44.00000 55.00000
98 48.00000 40.00000
99 46.00000 37.00000
100 51.00000 45.00000
101 88.00000 24.00000
102 87.00000 24.00000
103 85.00000 22.00000
104 85.00000 20.00000
105 94.00000 32.00000
106 95.00000 23.00000
107 95.00000 23.00000
108 83.00000 24.00000
109 96.00000 29.00000
110 -96.00000 -2.00000
111 -95.00000 -2.00000
112 -91.00000 13.00000
113 -101.00000 1.00000
114 -89.00000 1.00000
115 -94.00000 13.00000
116 -93.00000 11.00000
117 -92.00000 12.00000
118 -98.00000 6.00000
119 -88.00000 6.00000
120 -102.00000 10.00000
121 -101.00000 0.00000
122 -94.00000 -1.00000
123 -24.00000 88.00000
124 -35.00000 93.00000
125 -33.00000 91.00000
126 -36.00000 92.00000
127 -27.00000 91.00000
128 -26.00000 96.00000
129 -32.00000 90.00000
130 -26.00000 92.00000
131 -30.00000 92.00000
132 -28.00000 88.00000
133 -30.00000 96.00000
134 -31.00000 93.00000
135 35.00000 -114.00000
136 46.00000 -102.00000
137 28.00000 -121.00000
138 36.00000 -123.00000
139 34.00000 25.00000
140 33.00000 26.00000
141 25.00000 26.00000
142 31.00000 23.00000
143 32.00000 31.00000
144 33.00000 19.00000
145 35.00000 30.00000
146 32.00000 20.00000
147 30.00000 19.00000
148 33.00000 28.00000
149 34.00000 20.00000
150 29.00000 19.00000
151 29.00000 23.00000
DEMAND_SECTION
1 0
2 94
3 12
4 17
5 619
6 61
7 3
8 4
9 13
10 44
11 12
12 35
13 114
14 29
15 76
16 106
17 157
18 43
19 4
20 38
21 212
22 42
23 10
24 19
25 856
26 13
27 67
28 144
29 310
30 85
31 1061
32 344
33 22
34 15
35 219
36 44
37 370
38 74
39 82
40 3
41 39
42 54
43 22
44 171
45 65
46 405
47 19
48 7
49 586
50 15
51 149
52 141
53 9
54 261
55 4
56 5
57 21
58 25
59 86
60 86
61 124
62 123
63 11
64 41
65 279
66 149
67 9
68 65
69 155
70 6
71 83
72 11
73 735
74 4
75 56
76 26
77 5
78 34
79 13
80 1017
81 85
82 10
83 7
84 6
85 524
86 16
87 15
88 117
89 48
90 43
91 64
92 30
93 3
94 21
95 514
96 625
97 7
98 257
99 603
100 4
101 4
102 21
103 54
104 9
105 860
106 9
107 62
108 16
109 197
110 14
111 6
112 140
113 334
114 421
115 911
116 789
117 37
118 7
119 131
120 25
121 24
122 3
123 1027
124 114
125 34
126 6
127 530
128 75
129 794
130 241
131 18
132 243
133 31
134 5
135 68
136 30
137 497
138 15
139 583
140 911
141 388
142 36
143 7
144 206
145 1037
146 14
147 22
148 16
149 770
150 148
151 50
DEPOT_SECTION
1
-1
EOF
